
Gurobi 9.1.2 (linux64) logging started Mon Jul  5 21:02:28 2021


Gurobi 9.1.2 (linux64) logging started Mon Jul  5 21:02:34 2021

Gurobi Optimizer version 9.1.2 build v9.1.2rc0 (linux64)
Thread count: 40 physical cores, 40 logical processors, using up to 32 threads
Optimize a model with 3118434 rows, 1314095 columns and 9410455 nonzeros
Model fingerprint: 0xfeefbb72
Coefficient statistics:
  Matrix range     [3e-04, 1e+00]
  Objective range  [1e+01, 4e+05]
  Bounds range     [6e-07, 8e+06]
  RHS range        [6e+00, 3e+07]

Concurrent LP optimizer: primal simplex, dual simplex, and barrier
Showing barrier log only...

Presolve removed 2506141 rows and 262862 columns (presolve time = 5s) ...
Presolve removed 2662126 rows and 419708 columns (presolve time = 10s) ...
Presolve removed 2688158 rows and 618779 columns (presolve time = 16s) ...
Presolve removed 2857151 rows and 651756 columns
Presolve time: 21.14s
Presolved: 261283 rows, 802636 columns, 1995585 nonzeros

Elapsed ordering time = 5s
Ordering time: 7.31s

Barrier statistics:
 AA' NZ     : 1.147e+06
 Factor NZ  : 6.452e+06 (roughly 500 MBytes of memory)
 Factor Ops : 3.399e+08 (less than 1 second per iteration)
 Threads    : 30

                  Objective                Residual
Iter       Primal          Dual         Primal    Dual     Compl     Time
   0   8.76041884e+13 -5.00972781e+12  4.85e+11 4.37e+02  5.45e+09    37s
   1   5.74368262e+13 -5.00517113e+12  1.18e+11 1.96e+02  1.34e+09    43s
   2   3.49438209e+12 -4.92404874e+12  4.11e+09 1.36e-12  5.15e+07    52s
   3   1.44703599e+12 -1.24820864e+12  2.99e+08 1.71e-12  4.86e+06    64s
   4   1.33522474e+12  3.35206118e+10  2.57e+07 2.34e-11  1.08e+06    72s
   5   1.27986000e+12  8.12842407e+11  5.92e+06 6.14e-12  3.54e+05    78s
   6   1.25481549e+12  1.08284302e+12  1.51e+06 2.73e-12  1.23e+05    85s
   7   1.24900297e+12  1.16391237e+12  3.71e+05 1.66e-12  5.78e+04    92s
   8   1.24728731e+12  1.22782687e+12  4.95e+04 1.66e-12  1.29e+04    98s
   9   1.24655636e+12  1.24641028e+12  3.31e+03 2.27e-12  1.40e+02   107s
  10   1.24649832e+12  1.24648439e+12  5.19e+02 2.57e-12  1.63e+01   114s
  11   1.24648794e+12  1.24648742e+12  2.10e+01 4.85e-07  6.33e-01   122s
  12   1.24648753e+12  1.24648747e+12  1.90e+00 6.69e-08  6.37e-02   129s
  13   1.24648750e+12  1.24648748e+12  3.89e-01 2.41e-08  1.46e-02   137s
  14   1.24648749e+12  1.24648748e+12  1.33e-01 7.49e-09  5.15e-03   143s
  15   1.24648749e+12  1.24648749e+12  2.22e-02 2.55e-09  9.76e-04   152s
  16   1.24648749e+12  1.24648749e+12  4.03e-03 7.94e-10  2.11e-04   158s
  17   1.24648749e+12  1.24648749e+12  3.93e-08 1.15e-10  2.65e-05   167s
  18   1.24648749e+12  1.24648749e+12  2.69e-04 2.96e-11  5.68e-06   173s
  19   1.24648749e+12  1.24648749e+12  1.13e-03 3.50e-11  8.06e-07   181s
  20   1.24648749e+12  1.24648749e+12  2.93e-04 1.42e-11  2.33e-07   188s
  21   1.24648749e+12  1.24648749e+12  1.47e-04 3.75e-12  3.37e-08   197s
  22   1.24648749e+12  1.24648749e+12  3.19e-05 3.64e-12  3.57e-09   204s

Barrier solved model in 22 iterations and 204.01 seconds
Optimal objective 1.24648749e+12

Crossover log...

   82545 variables added to crossover basis                      211s

  178678 DPushes remaining with DInf 1.3439287e-02               213s
       0 DPushes remaining with DInf 0.0000000e+00               215s
Warning: Markowitz tolerance tightened to 0.5

  224287 PPushes remaining with PInf 2.3884438e-04               215s
  123105 PPushes remaining with PInf 5.0166314e-05               215s
   76676 PPushes remaining with PInf 5.0166314e-05               220s
   53988 PPushes remaining with PInf 5.0166314e-05               225s
   33832 PPushes remaining with PInf 5.0166314e-05               230s
   15196 PPushes remaining with PInf 5.0166314e-05               235s
       0 PPushes remaining with PInf 5.0166314e-05               239s

  Push phase complete: Pinf 5.0166314e-05, Dinf 1.4100230e-09    240s

Iteration    Objective       Primal Inf.    Dual Inf.      Time
  363544    1.2464875e+12   5.016631e-05   0.000000e+00    240s
  363545    1.2464875e+12   3.408341e-04   1.274749e+09    245s
  365158    1.2464875e+12   1.279547e-05   0.000000e+00    251s
Extra simplex iterations after uncrush: 1645
  365190    1.2464875e+12   0.000000e+00   0.000000e+00    254s

Solved with barrier
Solved in 365190 iterations and 254.54 seconds
Optimal objective  1.246487487e+12

User-callback calls 419897, time in user-callback 0.19 sec
